!   File created by the GAMESS Input Deck Generator Plugin for Avogadro
 $BASIS GBASIS=N31 NGAUSS=6 $END
 $CONTRL SCFTYP=RHF RUNTYP=OPTIMIZE DFTTYP=B3LYP $END
 $STATPT HSSEND=.TRUE. $END
 $FORCE METHOD=SEMINUM $END

 $DATA 
Title
C1
F     9.0     2.73410     0.00000     0.00000
F     9.0    -2.73430    -0.00020     0.00000
C     6.0     1.39490     0.00000    -0.00000
C     6.0    -1.39490     0.00000    -0.00000
C     6.0     0.69750    -1.20800     0.00000
C     6.0    -0.69730    -1.20800    -0.00000
C     6.0     0.69750     1.20800    -0.00000
C     6.0    -0.69750     1.20810    -0.00000
H     1.0     1.24090    -2.14830     0.00000
H     1.0    -1.24050    -2.14830    -0.00000
H     1.0     1.24080     2.14830     0.00000
H     1.0    -1.24070     2.14850     0.00000
 $END
