!   File created by the GAMESS Input Deck Generator Plugin for Avogadro
 $BASIS GBASIS=N31 NGAUSS=6 NDFUNC=0 $END
 $CONTRL SCFTYP=RHF RUNTYP=OPTIMIZE DFTTYP=B3LYP MAXIT=100 $END
 $STATPT OPTTOL=0.0001 NSTEP=200 $END

 $DATA 
Title
C1
O     8.0    -2.38286     0.51903     0.02670
O     8.0    -1.10849    -1.29685    -0.09310
O     8.0     1.69744     0.01963    -1.11758
O     8.0     1.73333    -0.19132     1.07484
N     7.0     1.21144     0.16982     0.01151
C     6.0    -0.06710     0.91372     0.10382
C     6.0    -1.17030    -0.08424    -0.00070
H     1.0    -0.10125     1.62571    -0.72461
H     1.0    -0.09225     1.42602     1.06875
H     1.0    -3.02728    -0.21982    -0.04372
 $END
