!   File created by the GAMESS Input Deck Generator Plugin for Avogadro
 $BASIS GBASIS=STO NGAUSS=3 $END
 $CONTRL SCFTYP=RHF RUNTYP=OPTIMIZE MAXIT=200 $END
 $STATPT OPTTOL=0.0001 NSTEP=200 $END

 $DATA 
Title
C1
O     8.0    -4.15553     1.07610     0.20197
H     1.0    -4.41033     1.93750    -0.15593
C     6.0    -2.90373     0.59050    -0.28733
C     6.0    -2.60363    -0.77120     0.34237
C     6.0    -1.26343    -1.29110    -0.18143
H     1.0    -5.67800     3.10559     0.01026
O     8.0    -4.79995     2.85619    -0.30894
H     1.0    -4.32938     3.56880    -0.76281
H     1.0    -2.95293     0.48670    -1.37123
H     1.0    -2.11363     1.29410    -0.02513
H     1.0    -2.55453    -0.66740     1.42627
H     1.0    -3.39383    -1.47480     0.08027
H     1.0    -1.31253    -1.39490    -1.26533
H     1.0    -0.47323    -0.58750     0.08067
H     1.0    -1.04963    -2.26120     0.26717
 $END
