!   File created by the GAMESS Input Deck Generator Plugin for Avogadro
 $BASIS GBASIS=STO NGAUSS=3 $END
 $CONTRL SCFTYP=RHF RUNTYP=OPTIMIZE MAXIT=200 $END
 $STATPT OPTTOL=0.0001 NSTEP=200 $END

 $DATA 
Title
C1
O     8.0    -4.17660     1.04720     0.17960
H     1.0    -4.43140     1.90860    -0.17830
C     6.0    -2.92480     0.56160    -0.30970
C     6.0    -2.62470    -0.80010     0.32000
C     6.0    -1.28450    -1.32000    -0.20380
H     1.0    -5.59836     0.46929     2.22534
O     8.0    -5.04231    -0.04012     1.62006
H     1.0    -4.56940     0.49969     0.97182
H     1.0    -2.97400     0.45780    -1.39360
H     1.0    -2.13470     1.26520    -0.04750
H     1.0    -2.57560    -0.69630     1.40390
H     1.0    -3.41490    -1.50370     0.05790
H     1.0    -1.33360    -1.42380    -1.28770
H     1.0    -0.49430    -0.61640     0.05830
H     1.0    -1.07070    -2.29010     0.24480
 $END
