!   File created by the GAMESS Input Deck Generator Plugin for Avogadro
 $BASIS GBASIS=STO NGAUSS=3 $END
 $CONTRL SCFTYP=RHF RUNTYP=ENERGY DFTTYP=B3LYP NPRINT=9 $END

 $DATA 
Title
C1
N     7.0     1.40902     1.54890     0.00000
N     7.0    -1.40904     1.54890     0.00000
C     6.0     0.70422     0.38727     0.00000
C     6.0    -0.70424     0.38727     0.00000
C     6.0     1.39273    -0.85103     0.00000
C     6.0    -1.39274    -0.85104     0.00000
C     6.0     0.69353    -2.06143     0.00000
C     6.0    -0.69354    -2.06143     0.00000
C     6.0     2.79506    -0.85129     0.00000
C     6.0    -2.79508    -0.85130     0.00000
C     6.0     3.49146     0.34812     0.00000
C     6.0    -3.49147     0.34810     0.00000
C     6.0     2.75776     1.51361     0.00000
C     6.0    -2.75779     1.51360     0.00000
H     1.0     1.22343    -3.01147     0.00000
H     1.0    -1.22344    -3.01148     0.00000
H     1.0     3.35196    -1.78516     0.00000
H     1.0    -3.35198    -1.78517     0.00000
H     1.0     4.57476     0.37206     0.00000
H     1.0    -4.57478     0.37204     0.00000
H     1.0     3.24268     2.48547     0.00000
H     1.0    -3.24271     2.48545     0.00000
 $END
