!   File created by the GAMESS Input Deck Generator Plugin for Avogadro
 $BASIS GBASIS=N31 NGAUSS=6 NDFUNC=0 $END
 $CONTRL SCFTYP=RHF RUNTYP=ENERGY CITYP=CIS $END
 $CIS NSTATE=6 $END
 $SYSTEM MWORDS=100 $END

 $DATA 
Title
C1
N     7.0     1.18930     1.38880    -0.00000
N     7.0     2.42410    -0.68050    -0.00000
C     6.0     0.00710    -0.69790     0.00000
C     6.0     0.03080     0.70650     0.00000
C     6.0    -1.21040    -1.40060     0.00000
C     6.0    -1.18990     1.37710     0.00000
C     6.0    -2.41540    -0.70500     0.00000
C     6.0     1.24610    -1.33230    -0.00000
C     6.0    -2.40470     0.68540    -0.00000
C     6.0     2.32290     0.65850     0.00000
H     1.0    -1.22340    -2.48790     0.00000
H     1.0    -1.20910     2.46540    -0.00000
H     1.0     1.32830    -2.41530    -0.00000
H     1.0    -3.35760    -1.24440     0.00000
H     1.0    -3.34090     1.23620    -0.00000
H     1.0     3.25270     1.21420     0.00000
 $END
