!   File created by the GAMESS Input Deck Generator Plugin for Avogadro
 $BASIS GBASIS=STO NGAUSS=3 $END
 $CONTRL SCFTYP=RHF RUNTYP=ENERGY DFTTYP=B3LYP TDDFT=EXCITE $END
 $TDDFT NSTATE=6 $END
 $SYSTEM MWORDS=100 $END

 $DATA 
Title
C1
N     7.0     1.18299     1.38466    -0.00000
N     7.0     2.41810    -0.66612    -0.00000
C     6.0     0.00341    -0.70667    -0.00000
C     6.0     0.03427     0.69311    -0.00000
C     6.0    -1.21882    -1.40794    -0.00000
C     6.0    -1.18098     1.36720    -0.00000
C     6.0    -2.42141    -0.70645    -0.00000
C     6.0     1.24530    -1.32724    -0.00000
C     6.0    -2.40274     0.68443    -0.00000
C     6.0     2.31951     0.66993    -0.00000
H     1.0    -1.23330    -2.49523    -0.00000
H     1.0    -1.17733     2.45492    -0.00000
H     1.0     1.33549    -2.40998    -0.00000
H     1.0    -3.36818    -1.24071    -0.00000
H     1.0    -3.33479     1.24421    -0.00000
H     1.0     3.24838     1.23009     0.00000
 $END
