!   File created by the GAMESS Input Deck Generator Plugin for Avogadro
 $BASIS GBASIS=STO NGAUSS=3 $END
 $CONTRL SCFTYP=RHF RUNTYP=OPTIMIZE $END
 $STATPT OPTTOL=0.0001 NSTEP=20 $END

 $DATA 
Title
C1
O     8.0     1.84841    -0.14811    -0.00225
C     6.0    -0.53319    -0.51105     0.00521
C     6.0     0.59119     0.51472     0.00524
C     6.0    -1.89971     0.14997    -0.00466
H     1.0    -0.43063    -1.16847    -0.86639
H     1.0    -0.44132    -1.15991     0.88438
H     1.0     0.53968     1.14963    -0.88473
H     1.0     0.54365     1.15887     0.88919
H     1.0    -2.02781     0.77274    -0.89576
H     1.0    -2.68837    -0.60890    -0.00453
H     1.0    -2.03606     0.78174     0.87886
H     1.0     1.89475    -0.69722     0.79895
 $END
