!   File created by the GAMESS Input Deck Generator Plugin for Avogadro
 $BASIS GBASIS=STO NGAUSS=3 $END
 $CONTRL SCFTYP=RHF RUNTYP=OPTIMIZE $END
 $STATPT OPTTOL=0.0001 NSTEP=20 $END

 $DATA 
Title
C1
O     8.0     0.00000     0.00000     0.00000
H     1.0     0.27740     0.89290     0.25440
H     1.0     0.60680    -0.23830    -0.71690
 $END
